p cnf 409 1598
c p weight 12 -1 0
c p weight -12 1 0
c p weight 14 6.12323399573676603586882014729198302312846062338790031898128063403419218957424163818359375E-17 0
c p weight -14 1 0
c p weight 15 1 0
c p weight -15 1 0
c p weight 16 -1 0
c p weight -16 1 0
c p weight 18 -1 0
c p weight -18 1 0
c p weight 20 1 0
c p weight -20 1 0
c p weight 21 0 0
c p weight -21 1 0
c p weight 22 -1 0
c p weight -22 1 0
c p weight 24 -1 0
c p weight -24 1 0
c p weight 26 6.12323399573676603586882014729198302312846062338790031898128063403419218957424163818359375E-17 0
c p weight -26 1 0
c p weight 27 1 0
c p weight -27 1 0
c p weight 28 -1 0
c p weight -28 1 0
c p weight 30 -1 0
c p weight -30 1 0
c p weight 32 1 0
c p weight -32 1 0
c p weight 33 0 0
c p weight -33 1 0
c p weight 34 -1 0
c p weight -34 1 0
c p weight 36 -1 0
c p weight -36 1 0
c p weight 38 6.12323399573676603586882014729198302312846062338790031898128063403419218957424163818359375E-17 0
c p weight -38 1 0
c p weight 39 1 0
c p weight -39 1 0
c p weight 40 -1 0
c p weight -40 1 0
c p weight 42 -1 0
c p weight -42 1 0
c p weight 44 1 0
c p weight -44 1 0
c p weight 45 0 0
c p weight -45 1 0
c p weight 46 -1 0
c p weight -46 1 0
c p weight 48 -1 0
c p weight -48 1 0
c p weight 50 6.12323399573676603586882014729198302312846062338790031898128063403419218957424163818359375E-17 0
c p weight -50 1 0
c p weight 51 1 0
c p weight -51 1 0
c p weight 52 -1 0
c p weight -52 1 0
c p weight 54 -1 0
c p weight -54 1 0
c p weight 56 1 0
c p weight -56 1 0
c p weight 57 0 0
c p weight -57 1 0
c p weight 58 -1 0
c p weight -58 1 0
c p weight 60 1 0
c p weight -60 1 0
c p weight 61 0 0
c p weight -61 1 0
c p weight 62 -1 0
c p weight -62 1 0
c p weight 64 6.12323399573676603586882014729198302312846062338790031898128063403419218957424163818359375E-17 0
c p weight -64 1 0
c p weight 65 1 0
c p weight -65 1 0
c p weight 66 -1 0
c p weight -66 1 0
c p weight 68 -0.600000000000000088817841970012523233890533447265625 0
c p weight -68 1 0
c p weight 69 -0.79999999999999993338661852249060757458209991455078125 0
c p weight -69 1 0
c p weight 70 -1 0
c p weight -70 1 0
c p weight 72 6.12323399573676603586882014729198302312846062338790031898128063403419218957424163818359375E-17 0
c p weight -72 1 0
c p weight 73 1 0
c p weight -73 1 0
c p weight 74 -1 0
c p weight -74 1 0
c p weight 76 -1 0
c p weight -76 1 0
c p weight 77 3.673940397442059375002259206809000622711899723162043418511757408850826323032379150390625E-16 0
c p weight -77 1 0
c p weight 78 -1 0
c p weight -78 1 0
c p weight 80 1 0
c p weight -80 1 0
c p weight 81 0 0
c p weight -81 1 0
c p weight 82 -1 0
c p weight -82 1 0
c p weight 85 -1 0
c p weight -85 1 0
c p weight 87 1 0
c p weight -87 1 0
c p weight 88 0 0
c p weight -88 1 0
c p weight 89 -1 0
c p weight -89 1 0
c p weight 91 6.12323399573676603586882014729198302312846062338790031898128063403419218957424163818359375E-17 0
c p weight -91 1 0
c p weight 92 1 0
c p weight -92 1 0
c p weight 93 -1 0
c p weight -93 1 0
c p weight 95 -0.5999999999999998667732370449812151491641998291015625 0
c p weight -95 1 0
c p weight 96 0.80000000000000015543122344752191565930843353271484375 0
c p weight -96 1 0
c p weight 97 -1 0
c p weight -97 1 0
c p weight 99 6.12323399573676603586882014729198302312846062338790031898128063403419218957424163818359375E-17 0
c p weight -99 1 0
c p weight 100 1 0
c p weight -100 1 0
c p weight 101 -1 0
c p weight -101 1 0
c p weight 103 -1 0
c p weight -103 1 0
c p weight 104 3.673940397442059375002259206809000622711899723162043418511757408850826323032379150390625E-16 0
c p weight -104 1 0
c p weight 105 -1 0
c p weight -105 1 0
c p weight 108 -1 0
c p weight -108 1 0
c p weight 110 0.9807852804032304305792422383092343807220458984375 0
c p weight -110 1 0
c p weight 111 -0.195090322016128248083788321309839375317096710205078125 0
c p weight -111 1 0
c p weight 112 -1 0
c p weight -112 1 0
c p weight 114 1 0
c p weight -114 1 0
c p weight 115 0 0
c p weight -115 1 0
c p weight 116 -1 0
c p weight -116 1 0
c p weight 118 6.12323399573676603586882014729198302312846062338790031898128063403419218957424163818359375E-17 0
c p weight -118 1 0
c p weight 119 1 0
c p weight -119 1 0
c p weight 120 -1 0
c p weight -120 1 0
c p weight 122 -0.600000000000000088817841970012523233890533447265625 0
c p weight -122 1 0
c p weight 123 -0.79999999999999993338661852249060757458209991455078125 0
c p weight -123 1 0
c p weight 124 -1 0
c p weight -124 1 0
c p weight 126 6.12323399573676603586882014729198302312846062338790031898128063403419218957424163818359375E-17 0
c p weight -126 1 0
c p weight 127 1 0
c p weight -127 1 0
c p weight 128 -1 0
c p weight -128 1 0
c p weight 130 -1 0
c p weight -130 1 0
c p weight 131 3.673940397442059375002259206809000622711899723162043418511757408850826323032379150390625E-16 0
c p weight -131 1 0
c p weight 132 -1 0
c p weight -132 1 0
c p weight 134 1 0
c p weight -134 1 0
c p weight 135 0 0
c p weight -135 1 0
c p weight 136 -1 0
c p weight -136 1 0
c p weight 139 -1 0
c p weight -139 1 0
c p weight 141 1 0
c p weight -141 1 0
c p weight 142 0 0
c p weight -142 1 0
c p weight 143 -1 0
c p weight -143 1 0
c p weight 145 6.12323399573676603586882014729198302312846062338790031898128063403419218957424163818359375E-17 0
c p weight -145 1 0
c p weight 146 1 0
c p weight -146 1 0
c p weight 147 -1 0
c p weight -147 1 0
c p weight 149 0.2800000000000000266453525910037569701671600341796875 0
c p weight -149 1 0
c p weight 150 0.95999999999999996447286321199499070644378662109375 0
c p weight -150 1 0
c p weight 151 -1 0
c p weight -151 1 0
c p weight 153 6.12323399573676603586882014729198302312846062338790031898128063403419218957424163818359375E-17 0
c p weight -153 1 0
c p weight 154 1 0
c p weight -154 1 0
c p weight 155 -1 0
c p weight -155 1 0
c p weight 157 -1 0
c p weight -157 1 0
c p weight 158 3.673940397442059375002259206809000622711899723162043418511757408850826323032379150390625E-16 0
c p weight -158 1 0
c p weight 159 -1 0
c p weight -159 1 0
c p weight 162 -1 0
c p weight -162 1 0
c p weight 164 0.9238795325112867384831361050601117312908172607421875 0
c p weight -164 1 0
c p weight 165 -0.382683432365089781779232680491986684501171112060546875 0
c p weight -165 1 0
c p weight 166 -1 0
c p weight -166 1 0
c p weight 168 1 0
c p weight -168 1 0
c p weight 169 0 0
c p weight -169 1 0
c p weight 170 -1 0
c p weight -170 1 0
c p weight 172 6.12323399573676603586882014729198302312846062338790031898128063403419218957424163818359375E-17 0
c p weight -172 1 0
c p weight 173 1 0
c p weight -173 1 0
c p weight 174 -1 0
c p weight -174 1 0
c p weight 176 0.2800000000000000266453525910037569701671600341796875 0
c p weight -176 1 0
c p weight 177 -0.95999999999999996447286321199499070644378662109375 0
c p weight -177 1 0
c p weight 178 -1 0
c p weight -178 1 0
c p weight 180 6.12323399573676603586882014729198302312846062338790031898128063403419218957424163818359375E-17 0
c p weight -180 1 0
c p weight 181 1 0
c p weight -181 1 0
c p weight 182 -1 0
c p weight -182 1 0
c p weight 184 -1 0
c p weight -184 1 0
c p weight 185 3.673940397442059375002259206809000622711899723162043418511757408850826323032379150390625E-16 0
c p weight -185 1 0
c p weight 186 -1 0
c p weight -186 1 0
c p weight 188 1 0
c p weight -188 1 0
c p weight 189 0 0
c p weight -189 1 0
c p weight 190 -1 0
c p weight -190 1 0
c p weight 193 -1 0
c p weight -193 1 0
c p weight 195 1 0
c p weight -195 1 0
c p weight 196 0 0
c p weight -196 1 0
c p weight 197 -1 0
c p weight -197 1 0
c p weight 199 6.12323399573676603586882014729198302312846062338790031898128063403419218957424163818359375E-17 0
c p weight -199 1 0
c p weight 200 1 0
c p weight -200 1 0
c p weight 201 -1 0
c p weight -201 1 0
c p weight 203 0.84320000000000006057376822354854084551334381103515625 0
c p weight -203 1 0
c p weight 204 -0.53759999999999996678212710321531631052494049072265625 0
c p weight -204 1 0
c p weight 205 -1 0
c p weight -205 1 0
c p weight 207 6.12323399573676603586882014729198302312846062338790031898128063403419218957424163818359375E-17 0
c p weight -207 1 0
c p weight 208 1 0
c p weight -208 1 0
c p weight 209 -1 0
c p weight -209 1 0
c p weight 211 -1 0
c p weight -211 1 0
c p weight 212 3.673940397442059375002259206809000622711899723162043418511757408850826323032379150390625E-16 0
c p weight -212 1 0
c p weight 213 -1 0
c p weight -213 1 0
c p weight 216 -1 0
c p weight -216 1 0
c p weight 218 0.70710678118654752440084436210485 0
c p weight -218 1 0
c p weight 219 -1 0
c p weight -219 1 0
c p weight 221 1 0
c p weight -221 1 0
c p weight 222 0 0
c p weight -222 1 0
c p weight 223 -1 0
c p weight -223 1 0
c p weight 225 6.12323399573676603586882014729198302312846062338790031898128063403419218957424163818359375E-17 0
c p weight -225 1 0
c p weight 226 1 0
c p weight -226 1 0
c p weight 227 -1 0
c p weight -227 1 0
c p weight 229 0.843199999999999949551465761032886803150177001953125 0
c p weight -229 1 0
c p weight 230 0.5376000000000000778044295657309703528881072998046875 0
c p weight -230 1 0
c p weight 231 -1 0
c p weight -231 1 0
c p weight 233 6.12323399573676603586882014729198302312846062338790031898128063403419218957424163818359375E-17 0
c p weight -233 1 0
c p weight 234 1 0
c p weight -234 1 0
c p weight 235 -1 0
c p weight -235 1 0
c p weight 237 -1 0
c p weight -237 1 0
c p weight 238 3.673940397442059375002259206809000622711899723162043418511757408850826323032379150390625E-16 0
c p weight -238 1 0
c p weight 239 -1 0
c p weight -239 1 0
c p weight 241 1 0
c p weight -241 1 0
c p weight 242 0 0
c p weight -242 1 0
c p weight 243 -1 0
c p weight -243 1 0
c p weight 246 -1 0
c p weight -246 1 0
c p weight 248 1 0
c p weight -248 1 0
c p weight 249 0 0
c p weight -249 1 0
c p weight 250 -1 0
c p weight -250 1 0
c p weight 252 6.12323399573676603586882014729198302312846062338790031898128063403419218957424163818359375E-17 0
c p weight -252 1 0
c p weight 253 1 0
c p weight -253 1 0
c p weight 254 -1 0
c p weight -254 1 0
c p weight 256 -0.4219724800000002051802994174067862331867218017578125 0
c p weight -256 1 0
c p weight 257 0.90660863999999985463063012502971105277538299560546875 0
c p weight -257 1 0
c p weight 258 -1 0
c p weight -258 1 0
c p weight 260 6.12323399573676603586882014729198302312846062338790031898128063403419218957424163818359375E-17 0
c p weight -260 1 0
c p weight 261 1 0
c p weight -261 1 0
c p weight 262 -1 0
c p weight -262 1 0
c p weight 264 -1 0
c p weight -264 1 0
c p weight 265 3.673940397442059375002259206809000622711899723162043418511757408850826323032379150390625E-16 0
c p weight -265 1 0
c p weight 266 -1 0
c p weight -266 1 0
c p weight 269 -1 0
c p weight -269 1 0
c p weight 271 -1 0
c p weight -271 1 0
c p weight 273 6.12323399573676603586882014729198302312846062338790031898128063403419218957424163818359375E-17 0
c p weight -273 1 0
c p weight 274 1 0
c p weight -274 1 0
c p weight 275 -1 0
c p weight -275 1 0
c p weight 277 -1 0
c p weight -277 1 0
c p weight 280 -1 0
c p weight -280 1 0
c p weight 282 0.70710678118654752440084436210485 0
c p weight -282 1 0
c p weight 283 -1 0
c p weight -283 1 0
c p weight 286 -1 0
c p weight -286 1 0
c p weight 288 -1 0
c p weight -288 1 0
c p weight 290 6.12323399573676603586882014729198302312846062338790031898128063403419218957424163818359375E-17 0
c p weight -290 1 0
c p weight 291 1 0
c p weight -291 1 0
c p weight 292 -1 0
c p weight -292 1 0
c p weight 294 -1 0
c p weight -294 1 0
c p weight 296 0.70710678118654752440084436210485 0
c p weight -296 1 0
c p weight 297 -1 0
c p weight -297 1 0
c p weight 300 -1 0
c p weight -300 1 0
c p weight 302 0.9238795325112867384831361050601117312908172607421875 0
c p weight -302 1 0
c p weight 303 0.382683432365089781779232680491986684501171112060546875 0
c p weight -303 1 0
c p weight 304 -1 0
c p weight -304 1 0
c p weight 307 -1 0
c p weight -307 1 0
c p weight 309 0.70710678118654752440084436210485 0
c p weight -309 1 0
c p weight 310 -1 0
c p weight -310 1 0
c p weight 313 -1 0
c p weight -313 1 0
c p weight 315 0.70710678118654752440084436210485 0
c p weight -315 1 0
c p weight 316 -1 0
c p weight -316 1 0
c p weight 319 -1 0
c p weight -319 1 0
c p weight 321 -1 0
c p weight -321 1 0
c p weight 323 6.12323399573676603586882014729198302312846062338790031898128063403419218957424163818359375E-17 0
c p weight -323 1 0
c p weight 324 1 0
c p weight -324 1 0
c p weight 325 -1 0
c p weight -325 1 0
c p weight 327 -1 0
c p weight -327 1 0
c p weight 329 0.70710678118654752440084436210485 0
c p weight -329 1 0
c p weight 330 -1 0
c p weight -330 1 0
c p weight 332 0.9238795325112867384831361050601117312908172607421875 0
c p weight -332 1 0
c p weight 333 -0.382683432365089781779232680491986684501171112060546875 0
c p weight -333 1 0
c p weight 334 -1 0
c p weight -334 1 0
c p weight 337 -1 0
c p weight -337 1 0
c p weight 339 0.9807852804032304305792422383092343807220458984375 0
c p weight -339 1 0
c p weight 340 0.195090322016128248083788321309839375317096710205078125 0
c p weight -340 1 0
c p weight 341 -1 0
c p weight -341 1 0
c p weight 344 -1 0
c p weight -344 1 0
c p weight 346 0.9238795325112867384831361050601117312908172607421875 0
c p weight -346 1 0
c p weight 347 -0.382683432365089781779232680491986684501171112060546875 0
c p weight -347 1 0
c p weight 348 -1 0
c p weight -348 1 0
c p weight 351 -1 0
c p weight -351 1 0
c p weight 353 0.9238795325112867384831361050601117312908172607421875 0
c p weight -353 1 0
c p weight 354 0.382683432365089781779232680491986684501171112060546875 0
c p weight -354 1 0
c p weight 355 -1 0
c p weight -355 1 0
c p weight 358 -1 0
c p weight -358 1 0
c p weight 360 0.70710678118654752440084436210485 0
c p weight -360 1 0
c p weight 361 -1 0
c p weight -361 1 0
c p weight 364 -1 0
c p weight -364 1 0
c p weight 366 0.70710678118654752440084436210485 0
c p weight -366 1 0
c p weight 367 -1 0
c p weight -367 1 0
c p weight 370 -1 0
c p weight -370 1 0
c p weight 372 -1 0
c p weight -372 1 0
c p weight 374 6.12323399573676603586882014729198302312846062338790031898128063403419218957424163818359375E-17 0
c p weight -374 1 0
c p weight 375 1 0
c p weight -375 1 0
c p weight 376 -1 0
c p weight -376 1 0
c p weight 378 -1 0
c p weight -378 1 0
c p weight 380 0.70710678118654752440084436210485 0
c p weight -380 1 0
c p weight 381 -1 0
c p weight -381 1 0
c p weight 383 0.9238795325112867384831361050601117312908172607421875 0
c p weight -383 1 0
c p weight 384 -0.382683432365089781779232680491986684501171112060546875 0
c p weight -384 1 0
c p weight 385 -1 0
c p weight -385 1 0
c p weight 387 0.9807852804032304305792422383092343807220458984375 0
c p weight -387 1 0
c p weight 388 -0.195090322016128248083788321309839375317096710205078125 0
c p weight -388 1 0
c p weight 389 -1 0
c p weight -389 1 0
c p weight 391 1 0
c p weight -391 1 0
c p weight 392 0 0
c p weight -392 1 0
c p weight 393 -1 0
c p weight -393 1 0
c p weight 395 6.12323399573676603586882014729198302312846062338790031898128063403419218957424163818359375E-17 0
c p weight -395 1 0
c p weight 396 1 0
c p weight -396 1 0
c p weight 397 -1 0
c p weight -397 1 0
c p weight 399 -0.42197247999999965006878710482851602137088775634765625 0
c p weight -399 1 0
c p weight 400 -0.9066086400000001876975375125766731798648834228515625 0
c p weight -400 1 0
c p weight 401 -1 0
c p weight -401 1 0
c p weight 403 6.12323399573676603586882014729198302312846062338790031898128063403419218957424163818359375E-17 0
c p weight -403 1 0
c p weight 404 1 0
c p weight -404 1 0
c p weight 405 -1 0
c p weight -405 1 0
c p weight 407 -1 0
c p weight -407 1 0
c p weight 408 3.673940397442059375002259206809000622711899723162043418511757408850826323032379150390625E-16 0
c p weight -408 1 0
c p weight 409 -1 0
c p weight -409 1 0
-9 0
-7 0
-5 0
-3 0
-1 0
11 1 -2 0
11 -1 2 0
-11 1 2 0
-11 -1 -2 0
-12 1 0
-12 2 0
12 -1 -2 0
13 -1 11 0
-13 1 11 0
-14 11 0
13 -14 -1 0
-13 -14 1 0
13 14 1 -11 0
-13 14 -1 -11 0
-15 11 0
13 -15 1 0
-13 -15 -1 0
13 15 -1 -11 0
-13 15 1 -11 0
-16 13 0
-16 11 0
-16 -1 0
16 -13 1 -11 0
17 13 -11 0
17 -13 11 0
-17 13 11 0
-17 -13 -11 0
-18 13 0
-18 11 0
18 -13 -11 0
19 13 -17 0
-19 13 17 0
-20 13 0
19 -20 -17 0
-19 -20 17 0
19 20 -13 17 0
-19 20 -13 -17 0
-21 13 0
19 -21 17 0
-19 -21 -17 0
19 21 -13 -17 0
-19 21 -13 17 0
-22 13 0
-22 17 0
-22 -19 0
22 19 -13 -17 0
23 3 -4 0
23 -3 4 0
-23 3 4 0
-23 -3 -4 0
-24 3 0
-24 4 0
24 -3 -4 0
25 -3 23 0
-25 3 23 0
-26 23 0
25 -26 -3 0
-25 -26 3 0
25 26 3 -23 0
-25 26 -3 -23 0
-27 23 0
25 -27 3 0
-25 -27 -3 0
25 27 -3 -23 0
-25 27 3 -23 0
-28 25 0
-28 23 0
-28 -3 0
28 -25 3 -23 0
29 25 -23 0
29 -25 23 0
-29 25 23 0
-29 -25 -23 0
-30 25 0
-30 23 0
30 -25 -23 0
31 25 -29 0
-31 25 29 0
-32 25 0
31 -32 -29 0
-31 -32 29 0
31 32 -25 29 0
-31 32 -25 -29 0
-33 25 0
31 -33 29 0
-31 -33 -29 0
31 33 -25 -29 0
-31 33 -25 29 0
-34 25 0
-34 29 0
-34 -31 0
34 31 -25 -29 0
35 5 -6 0
35 -5 6 0
-35 5 6 0
-35 -5 -6 0
-36 5 0
-36 6 0
36 -5 -6 0
37 -5 35 0
-37 5 35 0
-38 35 0
37 -38 -5 0
-37 -38 5 0
37 38 5 -35 0
-37 38 -5 -35 0
-39 35 0
37 -39 5 0
-37 -39 -5 0
37 39 -5 -35 0
-37 39 5 -35 0
-40 37 0
-40 35 0
-40 -5 0
40 -37 5 -35 0
41 37 -35 0
41 -37 35 0
-41 37 35 0
-41 -37 -35 0
-42 37 0
-42 35 0
42 -37 -35 0
43 37 -41 0
-43 37 41 0
-44 37 0
43 -44 -41 0
-43 -44 41 0
43 44 -37 41 0
-43 44 -37 -41 0
-45 37 0
43 -45 41 0
-43 -45 -41 0
43 45 -37 -41 0
-43 45 -37 41 0
-46 37 0
-46 41 0
-46 -43 0
46 43 -37 -41 0
47 7 -8 0
47 -7 8 0
-47 7 8 0
-47 -7 -8 0
-48 7 0
-48 8 0
48 -7 -8 0
49 -7 47 0
-49 7 47 0
-50 47 0
49 -50 -7 0
-49 -50 7 0
49 50 7 -47 0
-49 50 -7 -47 0
-51 47 0
49 -51 7 0
-49 -51 -7 0
49 51 -7 -47 0
-49 51 7 -47 0
-52 49 0
-52 47 0
-52 -7 0
52 -49 7 -47 0
53 49 -47 0
53 -49 47 0
-53 49 47 0
-53 -49 -47 0
-54 49 0
-54 47 0
54 -49 -47 0
55 49 -53 0
-55 49 53 0
-56 49 0
55 -56 -53 0
-55 -56 53 0
55 56 -49 53 0
-55 56 -49 -53 0
-57 49 0
55 -57 53 0
-55 -57 -53 0
55 57 -49 -53 0
-55 57 -49 53 0
-58 49 0
-58 53 0
-58 -55 0
58 55 -49 -53 0
59 9 -10 0
-59 9 10 0
-60 9 0
59 -60 -10 0
-59 -60 10 0
59 60 -9 10 0
-59 60 -9 -10 0
-61 9 0
59 -61 10 0
-59 -61 -10 0
59 61 -9 -10 0
-59 61 -9 10 0
-62 9 0
-62 10 0
-62 -59 0
62 59 -9 -10 0
63 -9 59 0
-63 9 59 0
-64 59 0
63 -64 -9 0
-63 -64 9 0
63 64 9 -59 0
-63 64 -9 -59 0
-65 59 0
63 -65 9 0
-63 -65 -9 0
63 65 -9 -59 0
-63 65 9 -59 0
-66 63 0
-66 59 0
-66 -9 0
66 -63 9 -59 0
67 63 -59 0
-67 63 59 0
-68 63 0
67 -68 -59 0
-67 -68 59 0
67 68 -63 59 0
-67 68 -63 -59 0
-69 63 0
67 -69 59 0
-67 -69 -59 0
67 69 -63 -59 0
-67 69 -63 59 0
-70 63 0
-70 59 0
-70 -67 0
70 67 -63 -59 0
71 -63 67 0
-71 63 67 0
-72 67 0
71 -72 -63 0
-71 -72 63 0
71 72 63 -67 0
-71 72 -63 -67 0
-73 67 0
71 -73 63 0
-71 -73 -63 0
71 73 -63 -67 0
-71 73 63 -67 0
-74 71 0
-74 67 0
-74 -63 0
74 -71 63 -67 0
75 71 -67 0
-75 71 67 0
-76 71 0
75 -76 -67 0
-75 -76 67 0
75 76 -71 67 0
-75 76 -71 -67 0
-77 71 0
75 -77 67 0
-75 -77 -67 0
75 77 -71 -67 0
-75 77 -71 67 0
-78 71 0
-78 67 0
-78 -75 0
78 75 -71 -67 0
79 71 -75 0
-79 71 75 0
-80 71 0
79 -80 -75 0
-79 -80 75 0
79 80 -71 75 0
-79 80 -71 -75 0
-81 71 0
79 -81 75 0
-79 -81 -75 0
79 81 -71 -75 0
-79 81 -71 75 0
-82 71 0
-82 75 0
-82 -79 0
82 79 -71 -75 0
83 13 -71 0
83 -13 71 0
-83 13 71 0
-83 -13 -71 0
84 19 -79 0
84 -19 79 0
-84 19 79 0
-84 -19 -79 0
-85 13 0
-85 79 0
-85 71 -19 0
-85 -71 19 0
85 -13 71 19 -79 0
85 -13 -71 -19 -79 0
86 83 -79 0
-86 83 79 0
-87 83 0
86 -87 -79 0
-86 -87 79 0
86 87 -83 79 0
-86 87 -83 -79 0
-88 83 0
86 -88 79 0
-86 -88 -79 0
86 88 -83 -79 0
-86 88 -83 79 0
-89 83 0
-89 79 0
-89 -86 0
89 86 -83 -79 0
90 -83 86 0
-90 83 86 0
-91 86 0
90 -91 -83 0
-90 -91 83 0
90 91 83 -86 0
-90 91 -83 -86 0
-92 86 0
90 -92 83 0
-90 -92 -83 0
90 92 -83 -86 0
-90 92 83 -86 0
-93 90 0
-93 86 0
-93 -83 0
93 -90 83 -86 0
94 90 -86 0
-94 90 86 0
-95 90 0
94 -95 -86 0
-94 -95 86 0
94 95 -90 86 0
-94 95 -90 -86 0
-96 90 0
94 -96 86 0
-94 -96 -86 0
94 96 -90 -86 0
-94 96 -90 86 0
-97 90 0
-97 86 0
-97 -94 0
97 94 -90 -86 0
98 -90 94 0
-98 90 94 0
-99 94 0
98 -99 -90 0
-98 -99 90 0
98 99 90 -94 0
-98 99 -90 -94 0
-100 94 0
98 -100 90 0
-98 -100 -90 0
98 100 -90 -94 0
-98 100 90 -94 0
-101 98 0
-101 94 0
-101 -90 0
101 -98 90 -94 0
102 98 -94 0
-102 98 94 0
-103 98 0
102 -103 -94 0
-102 -103 94 0
102 103 -98 94 0
-102 103 -98 -94 0
-104 98 0
102 -104 94 0
-102 -104 -94 0
102 104 -98 -94 0
-102 104 -98 94 0
-105 98 0
-105 94 0
-105 -102 0
105 102 -98 -94 0
106 13 -98 0
106 -13 98 0
-106 13 98 0
-106 -13 -98 0
107 84 -102 0
107 -84 102 0
-107 84 102 0
-107 -84 -102 0
-108 13 0
-108 102 0
-108 98 -84 0
-108 -98 84 0
108 -13 98 84 -102 0
108 -13 -98 -84 -102 0
109 13 -107 0
-109 13 107 0
-110 13 0
109 -110 -107 0
-109 -110 107 0
109 110 -13 107 0
-109 110 -13 -107 0
-111 13 0
109 -111 107 0
-109 -111 -107 0
109 111 -13 -107 0
-109 111 -13 107 0
-112 13 0
-112 107 0
-112 -109 0
112 109 -13 -107 0
113 106 -102 0
-113 106 102 0
-114 106 0
113 -114 -102 0
-113 -114 102 0
113 114 -106 102 0
-113 114 -106 -102 0
-115 106 0
113 -115 102 0
-113 -115 -102 0
113 115 -106 -102 0
-113 115 -106 102 0
-116 106 0
-116 102 0
-116 -113 0
116 113 -106 -102 0
117 -106 113 0
-117 106 113 0
-118 113 0
117 -118 -106 0
-117 -118 106 0
117 118 106 -113 0
-117 118 -106 -113 0
-119 113 0
117 -119 106 0
-117 -119 -106 0
117 119 -106 -113 0
-117 119 106 -113 0
-120 117 0
-120 113 0
-120 -106 0
120 -117 106 -113 0
121 117 -113 0
-121 117 113 0
-122 117 0
121 -122 -113 0
-121 -122 113 0
121 122 -117 113 0
-121 122 -117 -113 0
-123 117 0
121 -123 113 0
-121 -123 -113 0
121 123 -117 -113 0
-121 123 -117 113 0
-124 117 0
-124 113 0
-124 -121 0
124 121 -117 -113 0
125 -117 121 0
-125 117 121 0
-126 121 0
125 -126 -117 0
-125 -126 117 0
125 126 117 -121 0
-125 126 -117 -121 0
-127 121 0
125 -127 117 0
-125 -127 -117 0
125 127 -117 -121 0
-125 127 117 -121 0
-128 125 0
-128 121 0
-128 -117 0
128 -125 117 -121 0
129 125 -121 0
-129 125 121 0
-130 125 0
129 -130 -121 0
-129 -130 121 0
129 130 -125 121 0
-129 130 -125 -121 0
-131 125 0
129 -131 121 0
-129 -131 -121 0
129 131 -125 -121 0
-129 131 -125 121 0
-132 125 0
-132 121 0
-132 -129 0
132 129 -125 -121 0
133 125 -129 0
-133 125 129 0
-134 125 0
133 -134 -129 0
-133 -134 129 0
133 134 -125 129 0
-133 134 -125 -129 0
-135 125 0
133 -135 129 0
-133 -135 -129 0
133 135 -125 -129 0
-133 135 -125 129 0
-136 125 0
-136 129 0
-136 -133 0
136 133 -125 -129 0
137 25 -125 0
137 -25 125 0
-137 25 125 0
-137 -25 -125 0
138 31 -133 0
138 -31 133 0
-138 31 133 0
-138 -31 -133 0
-139 25 0
-139 133 0
-139 125 -31 0
-139 -125 31 0
139 -25 125 31 -133 0
139 -25 -125 -31 -133 0
140 137 -133 0
-140 137 133 0
-141 137 0
140 -141 -133 0
-140 -141 133 0
140 141 -137 133 0
-140 141 -137 -133 0
-142 137 0
140 -142 133 0
-140 -142 -133 0
140 142 -137 -133 0
-140 142 -137 133 0
-143 137 0
-143 133 0
-143 -140 0
143 140 -137 -133 0
144 -137 140 0
-144 137 140 0
-145 140 0
144 -145 -137 0
-144 -145 137 0
144 145 137 -140 0
-144 145 -137 -140 0
-146 140 0
144 -146 137 0
-144 -146 -137 0
144 146 -137 -140 0
-144 146 137 -140 0
-147 144 0
-147 140 0
-147 -137 0
147 -144 137 -140 0
148 144 -140 0
-148 144 140 0
-149 144 0
148 -149 -140 0
-148 -149 140 0
148 149 -144 140 0
-148 149 -144 -140 0
-150 144 0
148 -150 140 0
-148 -150 -140 0
148 150 -144 -140 0
-148 150 -144 140 0
-151 144 0
-151 140 0
-151 -148 0
151 148 -144 -140 0
152 -144 148 0
-152 144 148 0
-153 148 0
152 -153 -144 0
-152 -153 144 0
152 153 144 -148 0
-152 153 -144 -148 0
-154 148 0
152 -154 144 0
-152 -154 -144 0
152 154 -144 -148 0
-152 154 144 -148 0
-155 152 0
-155 148 0
-155 -144 0
155 -152 144 -148 0
156 152 -148 0
-156 152 148 0
-157 152 0
156 -157 -148 0
-156 -157 148 0
156 157 -152 148 0
-156 157 -152 -148 0
-158 152 0
156 -158 148 0
-156 -158 -148 0
156 158 -152 -148 0
-156 158 -152 148 0
-159 152 0
-159 148 0
-159 -156 0
159 156 -152 -148 0
160 25 -152 0
160 -25 152 0
-160 25 152 0
-160 -25 -152 0
161 138 -156 0
161 -138 156 0
-161 138 156 0
-161 -138 -156 0
-162 25 0
-162 156 0
-162 152 -138 0
-162 -152 138 0
162 -25 152 138 -156 0
162 -25 -152 -138 -156 0
163 25 -161 0
-163 25 161 0
-164 25 0
163 -164 -161 0
-163 -164 161 0
163 164 -25 161 0
-163 164 -25 -161 0
-165 25 0
163 -165 161 0
-163 -165 -161 0
163 165 -25 -161 0
-163 165 -25 161 0
-166 25 0
-166 161 0
-166 -163 0
166 163 -25 -161 0
167 160 -156 0
-167 160 156 0
-168 160 0
167 -168 -156 0
-167 -168 156 0
167 168 -160 156 0
-167 168 -160 -156 0
-169 160 0
167 -169 156 0
-167 -169 -156 0
167 169 -160 -156 0
-167 169 -160 156 0
-170 160 0
-170 156 0
-170 -167 0
170 167 -160 -156 0
171 -160 167 0
-171 160 167 0
-172 167 0
171 -172 -160 0
-171 -172 160 0
171 172 160 -167 0
-171 172 -160 -167 0
-173 167 0
171 -173 160 0
-171 -173 -160 0
171 173 -160 -167 0
-171 173 160 -167 0
-174 171 0
-174 167 0
-174 -160 0
174 -171 160 -167 0
175 171 -167 0
-175 171 167 0
-176 171 0
175 -176 -167 0
-175 -176 167 0
175 176 -171 167 0
-175 176 -171 -167 0
-177 171 0
175 -177 167 0
-175 -177 -167 0
175 177 -171 -167 0
-175 177 -171 167 0
-178 171 0
-178 167 0
-178 -175 0
178 175 -171 -167 0
179 -171 175 0
-179 171 175 0
-180 175 0
179 -180 -171 0
-179 -180 171 0
179 180 171 -175 0
-179 180 -171 -175 0
-181 175 0
179 -181 171 0
-179 -181 -171 0
179 181 -171 -175 0
-179 181 171 -175 0
-182 179 0
-182 175 0
-182 -171 0
182 -179 171 -175 0
183 179 -175 0
-183 179 175 0
-184 179 0
183 -184 -175 0
-183 -184 175 0
183 184 -179 175 0
-183 184 -179 -175 0
-185 179 0
183 -185 175 0
-183 -185 -175 0
183 185 -179 -175 0
-183 185 -179 175 0
-186 179 0
-186 175 0
-186 -183 0
186 183 -179 -175 0
187 179 -183 0
-187 179 183 0
-188 179 0
187 -188 -183 0
-187 -188 183 0
187 188 -179 183 0
-187 188 -179 -183 0
-189 179 0
187 -189 183 0
-187 -189 -183 0
187 189 -179 -183 0
-187 189 -179 183 0
-190 179 0
-190 183 0
-190 -187 0
190 187 -179 -183 0
191 37 -179 0
191 -37 179 0
-191 37 179 0
-191 -37 -179 0
192 43 -187 0
192 -43 187 0
-192 43 187 0
-192 -43 -187 0
-193 37 0
-193 187 0
-193 179 -43 0
-193 -179 43 0
193 -37 179 43 -187 0
193 -37 -179 -43 -187 0
194 191 -187 0
-194 191 187 0
-195 191 0
194 -195 -187 0
-194 -195 187 0
194 195 -191 187 0
-194 195 -191 -187 0
-196 191 0
194 -196 187 0
-194 -196 -187 0
194 196 -191 -187 0
-194 196 -191 187 0
-197 191 0
-197 187 0
-197 -194 0
197 194 -191 -187 0
198 -191 194 0
-198 191 194 0
-199 194 0
198 -199 -191 0
-198 -199 191 0
198 199 191 -194 0
-198 199 -191 -194 0
-200 194 0
198 -200 191 0
-198 -200 -191 0
198 200 -191 -194 0
-198 200 191 -194 0
-201 198 0
-201 194 0
-201 -191 0
201 -198 191 -194 0
202 198 -194 0
-202 198 194 0
-203 198 0
202 -203 -194 0
-202 -203 194 0
202 203 -198 194 0
-202 203 -198 -194 0
-204 198 0
202 -204 194 0
-202 -204 -194 0
202 204 -198 -194 0
-202 204 -198 194 0
-205 198 0
-205 194 0
-205 -202 0
205 202 -198 -194 0
206 -198 202 0
-206 198 202 0
-207 202 0
206 -207 -198 0
-206 -207 198 0
206 207 198 -202 0
-206 207 -198 -202 0
-208 202 0
206 -208 198 0
-206 -208 -198 0
206 208 -198 -202 0
-206 208 198 -202 0
-209 206 0
-209 202 0
-209 -198 0
209 -206 198 -202 0
210 206 -202 0
-210 206 202 0
-211 206 0
210 -211 -202 0
-210 -211 202 0
210 211 -206 202 0
-210 211 -206 -202 0
-212 206 0
210 -212 202 0
-210 -212 -202 0
210 212 -206 -202 0
-210 212 -206 202 0
-213 206 0
-213 202 0
-213 -210 0
213 210 -206 -202 0
214 37 -206 0
214 -37 206 0
-214 37 206 0
-214 -37 -206 0
215 192 -210 0
215 -192 210 0
-215 192 210 0
-215 -192 -210 0
-216 37 0
-216 210 0
-216 206 -192 0
-216 -206 192 0
216 -37 206 192 -210 0
216 -37 -206 -192 -210 0
217 37 -215 0
-217 37 215 0
218 -37 0
-218 37 0
-219 217 0
-219 37 0
-219 -215 0
219 -217 -37 215 0
220 214 -210 0
-220 214 210 0
-221 214 0
220 -221 -210 0
-220 -221 210 0
220 221 -214 210 0
-220 221 -214 -210 0
-222 214 0
220 -222 210 0
-220 -222 -210 0
220 222 -214 -210 0
-220 222 -214 210 0
-223 214 0
-223 210 0
-223 -220 0
223 220 -214 -210 0
224 -214 220 0
-224 214 220 0
-225 220 0
224 -225 -214 0
-224 -225 214 0
224 225 214 -220 0
-224 225 -214 -220 0
-226 220 0
224 -226 214 0
-224 -226 -214 0
224 226 -214 -220 0
-224 226 214 -220 0
-227 224 0
-227 220 0
-227 -214 0
227 -224 214 -220 0
228 224 -220 0
-228 224 220 0
-229 224 0
228 -229 -220 0
-228 -229 220 0
228 229 -224 220 0
-228 229 -224 -220 0
-230 224 0
228 -230 220 0
-228 -230 -220 0
228 230 -224 -220 0
-228 230 -224 220 0
-231 224 0
-231 220 0
-231 -228 0
231 228 -224 -220 0
232 -224 228 0
-232 224 228 0
-233 228 0
232 -233 -224 0
-232 -233 224 0
232 233 224 -228 0
-232 233 -224 -228 0
-234 228 0
232 -234 224 0
-232 -234 -224 0
232 234 -224 -228 0
-232 234 224 -228 0
-235 232 0
-235 228 0
-235 -224 0
235 -232 224 -228 0
236 232 -228 0
-236 232 228 0
-237 232 0
236 -237 -228 0
-236 -237 228 0
236 237 -232 228 0
-236 237 -232 -228 0
-238 232 0
236 -238 228 0
-236 -238 -228 0
236 238 -232 -228 0
-236 238 -232 228 0
-239 232 0
-239 228 0
-239 -236 0
239 236 -232 -228 0
240 232 -236 0
-240 232 236 0
-241 232 0
240 -241 -236 0
-240 -241 236 0
240 241 -232 236 0
-240 241 -232 -236 0
-242 232 0
240 -242 236 0
-240 -242 -236 0
240 242 -232 -236 0
-240 242 -232 236 0
-243 232 0
-243 236 0
-243 -240 0
243 240 -232 -236 0
244 49 -232 0
244 -49 232 0
-244 49 232 0
-244 -49 -232 0
245 55 -240 0
245 -55 240 0
-245 55 240 0
-245 -55 -240 0
-246 49 0
-246 240 0
-246 232 -55 0
-246 -232 55 0
246 -49 232 55 -240 0
246 -49 -232 -55 -240 0
247 244 -240 0
-247 244 240 0
-248 244 0
247 -248 -240 0
-247 -248 240 0
247 248 -244 240 0
-247 248 -244 -240 0
-249 244 0
247 -249 240 0
-247 -249 -240 0
247 249 -244 -240 0
-247 249 -244 240 0
-250 244 0
-250 240 0
-250 -247 0
250 247 -244 -240 0
251 -244 247 0
-251 244 247 0
-252 247 0
251 -252 -244 0
-251 -252 244 0
251 252 244 -247 0
-251 252 -244 -247 0
-253 247 0
251 -253 244 0
-251 -253 -244 0
251 253 -244 -247 0
-251 253 244 -247 0
-254 251 0
-254 247 0
-254 -244 0
254 -251 244 -247 0
255 251 -247 0
-255 251 247 0
-256 251 0
255 -256 -247 0
-255 -256 247 0
255 256 -251 247 0
-255 256 -251 -247 0
-257 251 0
255 -257 247 0
-255 -257 -247 0
255 257 -251 -247 0
-255 257 -251 247 0
-258 251 0
-258 247 0
-258 -255 0
258 255 -251 -247 0
259 -251 255 0
-259 251 255 0
-260 255 0
259 -260 -251 0
-259 -260 251 0
259 260 251 -255 0
-259 260 -251 -255 0
-261 255 0
259 -261 251 0
-259 -261 -251 0
259 261 -251 -255 0
-259 261 251 -255 0
-262 259 0
-262 255 0
-262 -251 0
262 -259 251 -255 0
263 259 -255 0
-263 259 255 0
-264 259 0
263 -264 -255 0
-263 -264 255 0
263 264 -259 255 0
-263 264 -259 -255 0
-265 259 0
263 -265 255 0
-263 -265 -255 0
263 265 -259 -255 0
-263 265 -259 255 0
-266 259 0
-266 255 0
-266 -263 0
266 263 -259 -255 0
267 49 -259 0
267 -49 259 0
-267 49 259 0
-267 -49 -259 0
268 245 -263 0
268 -245 263 0
-268 245 263 0
-268 -245 -263 0
-269 49 0
-269 263 0
-269 259 -245 0
-269 -259 245 0
269 -49 259 245 -263 0
269 -49 -259 -245 -263 0
270 49 -268 0
270 -49 268 0
-270 49 268 0
-270 -49 -268 0
-271 49 0
-271 268 0
271 -49 -268 0
272 -49 270 0
-272 49 270 0
-273 270 0
272 -273 -49 0
-272 -273 49 0
272 273 49 -270 0
-272 273 -49 -270 0
-274 270 0
272 -274 49 0
-272 -274 -49 0
272 274 -49 -270 0
-272 274 49 -270 0
-275 272 0
-275 270 0
-275 -49 0
275 -272 49 -270 0
276 272 -270 0
276 -272 270 0
-276 272 270 0
-276 -272 -270 0
-277 272 0
-277 270 0
277 -272 -270 0
278 37 -272 0
278 -37 272 0
-278 37 272 0
-278 -37 -272 0
279 217 -276 0
279 -217 276 0
-279 217 276 0
-279 -217 -276 0
-280 37 0
-280 276 0
-280 272 -217 0
-280 -272 217 0
280 -37 272 217 -276 0
280 -37 -272 -217 -276 0
281 278 -276 0
-281 278 276 0
282 -278 0
-282 278 0
-283 278 0
-283 276 0
-283 -281 0
283 281 -278 -276 0
284 37 -278 0
284 -37 278 0
-284 37 278 0
-284 -37 -278 0
285 279 -281 0
285 -279 281 0
-285 279 281 0
-285 -279 -281 0
-286 37 0
-286 281 0
-286 278 -279 0
-286 -278 279 0
286 -37 278 279 -281 0
286 -37 -278 -279 -281 0
287 37 -285 0
287 -37 285 0
-287 37 285 0
-287 -37 -285 0
-288 37 0
-288 285 0
288 -37 -285 0
289 -37 287 0
-289 37 287 0
-290 287 0
289 -290 -37 0
-289 -290 37 0
289 290 37 -287 0
-289 290 -37 -287 0
-291 287 0
289 -291 37 0
-289 -291 -37 0
289 291 -37 -287 0
-289 291 37 -287 0
-292 289 0
-292 287 0
-292 -37 0
292 -289 37 -287 0
293 289 -287 0
293 -289 287 0
-293 289 287 0
-293 -289 -287 0
-294 289 0
-294 287 0
294 -289 -287 0
295 284 -281 0
-295 284 281 0
296 -284 0
-296 284 0
-297 295 0
-297 284 0
-297 -281 0
297 -295 -284 281 0
298 25 -284 0
298 -25 284 0
-298 25 284 0
-298 -25 -284 0
299 163 -295 0
299 -163 295 0
-299 163 295 0
-299 -163 -295 0
-300 25 0
-300 295 0
-300 284 -163 0
-300 -284 163 0
300 -25 284 163 -295 0
300 -25 -284 -163 -295 0
301 298 -295 0
-301 298 295 0
-302 298 0
301 -302 -295 0
-301 -302 295 0
301 302 -298 295 0
-301 302 -298 -295 0
-303 298 0
301 -303 295 0
-301 -303 -295 0
301 303 -298 -295 0
-301 303 -298 295 0
-304 298 0
-304 295 0
-304 -301 0
304 301 -298 -295 0
305 25 -298 0
305 -25 298 0
-305 25 298 0
-305 -25 -298 0
306 299 -301 0
306 -299 301 0
-306 299 301 0
-306 -299 -301 0
-307 25 0
-307 301 0
-307 298 -299 0
-307 -298 299 0
307 -25 298 299 -301 0
307 -25 -298 -299 -301 0
308 25 -306 0
-308 25 306 0
309 -25 0
-309 25 0
-310 308 0
-310 25 0
-310 -306 0
310 -308 -25 306 0
311 25 -289 0
311 -25 289 0
-311 25 289 0
-311 -25 -289 0
312 308 -293 0
312 -308 293 0
-312 308 293 0
-312 -308 -293 0
-313 25 0
-313 293 0
-313 289 -308 0
-313 -289 308 0
313 -25 289 308 -293 0
313 -25 -289 -308 -293 0
314 311 -293 0
-314 311 293 0
315 -311 0
-315 311 0
-316 311 0
-316 293 0
-316 -314 0
316 314 -311 -293 0
317 25 -311 0
317 -25 311 0
-317 25 311 0
-317 -25 -311 0
318 312 -314 0
318 -312 314 0
-318 312 314 0
-318 -312 -314 0
-319 25 0
-319 314 0
-319 311 -312 0
-319 -311 312 0
319 -25 311 312 -314 0
319 -25 -311 -312 -314 0
320 25 -318 0
320 -25 318 0
-320 25 318 0
-320 -25 -318 0
-321 25 0
-321 318 0
321 -25 -318 0
322 -25 320 0
-322 25 320 0
-323 320 0
322 -323 -25 0
-322 -323 25 0
322 323 25 -320 0
-322 323 -25 -320 0
-324 320 0
322 -324 25 0
-322 -324 -25 0
322 324 -25 -320 0
-322 324 25 -320 0
-325 322 0
-325 320 0
-325 -25 0
325 -322 25 -320 0
326 322 -320 0
326 -322 320 0
-326 322 320 0
-326 -322 -320 0
-327 322 0
-327 320 0
327 -322 -320 0
328 317 -314 0
-328 317 314 0
329 -317 0
-329 317 0
-330 328 0
-330 317 0
-330 -314 0
330 -328 -317 314 0
331 305 -301 0
-331 305 301 0
-332 305 0
331 -332 -301 0
-331 -332 301 0
331 332 -305 301 0
-331 332 -305 -301 0
-333 305 0
331 -333 301 0
-331 -333 -301 0
331 333 -305 -301 0
-331 333 -305 301 0
-334 305 0
-334 301 0
-334 -331 0
334 331 -305 -301 0
335 13 -305 0
335 -13 305 0
-335 13 305 0
-335 -13 -305 0
336 109 -331 0
336 -109 331 0
-336 109 331 0
-336 -109 -331 0
-337 13 0
-337 331 0
-337 305 -109 0
-337 -305 109 0
337 -13 305 109 -331 0
337 -13 -305 -109 -331 0
338 335 -331 0
-338 335 331 0
-339 335 0
338 -339 -331 0
-338 -339 331 0
338 339 -335 331 0
-338 339 -335 -331 0
-340 335 0
338 -340 331 0
-338 -340 -331 0
338 340 -335 -331 0
-338 340 -335 331 0
-341 335 0
-341 331 0
-341 -338 0
341 338 -335 -331 0
342 13 -335 0
342 -13 335 0
-342 13 335 0
-342 -13 -335 0
343 336 -338 0
343 -336 338 0
-343 336 338 0
-343 -336 -338 0
-344 13 0
-344 338 0
-344 335 -336 0
-344 -335 336 0
344 -13 335 336 -338 0
344 -13 -335 -336 -338 0
345 13 -343 0
-345 13 343 0
-346 13 0
345 -346 -343 0
-345 -346 343 0
345 346 -13 343 0
-345 346 -13 -343 0
-347 13 0
345 -347 343 0
-345 -347 -343 0
345 347 -13 -343 0
-345 347 -13 343 0
-348 13 0
-348 343 0
-348 -345 0
348 345 -13 -343 0
349 13 -317 0
349 -13 317 0
-349 13 317 0
-349 -13 -317 0
350 345 -328 0
350 -345 328 0
-350 345 328 0
-350 -345 -328 0
-351 13 0
-351 328 0
-351 317 -345 0
-351 -317 345 0
351 -13 317 345 -328 0
351 -13 -317 -345 -328 0
352 349 -328 0
-352 349 328 0
-353 349 0
352 -353 -328 0
-352 -353 328 0
352 353 -349 328 0
-352 353 -349 -328 0
-354 349 0
352 -354 328 0
-352 -354 -328 0
352 354 -349 -328 0
-352 354 -349 328 0
-355 349 0
-355 328 0
-355 -352 0
355 352 -349 -328 0
356 13 -349 0
356 -13 349 0
-356 13 349 0
-356 -13 -349 0
357 350 -352 0
357 -350 352 0
-357 350 352 0
-357 -350 -352 0
-358 13 0
-358 352 0
-358 349 -350 0
-358 -349 350 0
358 -13 349 350 -352 0
358 -13 -349 -350 -352 0
359 13 -357 0
-359 13 357 0
360 -13 0
-360 13 0
-361 359 0
-361 13 0
-361 -357 0
361 -359 -13 357 0
362 13 -322 0
362 -13 322 0
-362 13 322 0
-362 -13 -322 0
363 359 -326 0
363 -359 326 0
-363 359 326 0
-363 -359 -326 0
-364 13 0
-364 326 0
-364 322 -359 0
-364 -322 359 0
364 -13 322 359 -326 0
364 -13 -322 -359 -326 0
365 362 -326 0
-365 362 326 0
366 -362 0
-366 362 0
-367 362 0
-367 326 0
-367 -365 0
367 365 -362 -326 0
368 13 -362 0
368 -13 362 0
-368 13 362 0
-368 -13 -362 0
369 363 -365 0
369 -363 365 0
-369 363 365 0
-369 -363 -365 0
-370 13 0
-370 365 0
-370 362 -363 0
-370 -362 363 0
370 -13 362 363 -365 0
370 -13 -362 -363 -365 0
371 13 -369 0
371 -13 369 0
-371 13 369 0
-371 -13 -369 0
-372 13 0
-372 369 0
372 -13 -369 0
373 -13 371 0
-373 13 371 0
-374 371 0
373 -374 -13 0
-373 -374 13 0
373 374 13 -371 0
-373 374 -13 -371 0
-375 371 0
373 -375 13 0
-373 -375 -13 0
373 375 -13 -371 0
-373 375 13 -371 0
-376 373 0
-376 371 0
-376 -13 0
376 -373 13 -371 0
377 373 -371 0
377 -373 371 0
-377 373 371 0
-377 -373 -371 0
-378 373 0
-378 371 0
378 -373 -371 0
379 368 -365 0
-379 368 365 0
380 -368 0
-380 368 0
-381 379 0
-381 368 0
-381 -365 0
381 -379 -368 365 0
382 356 -352 0
-382 356 352 0
-383 356 0
382 -383 -352 0
-382 -383 352 0
382 383 -356 352 0
-382 383 -356 -352 0
-384 356 0
382 -384 352 0
-382 -384 -352 0
382 384 -356 -352 0
-382 384 -356 352 0
-385 356 0
-385 352 0
-385 -382 0
385 382 -356 -352 0
386 342 -338 0
-386 342 338 0
-387 342 0
386 -387 -338 0
-386 -387 338 0
386 387 -342 338 0
-386 387 -342 -338 0
-388 342 0
386 -388 338 0
-386 -388 -338 0
386 388 -342 -338 0
-386 388 -342 338 0
-389 342 0
-389 338 0
-389 -386 0
389 386 -342 -338 0
390 267 -263 0
-390 267 263 0
-391 267 0
390 -391 -263 0
-390 -391 263 0
390 391 -267 263 0
-390 391 -267 -263 0
-392 267 0
390 -392 263 0
-390 -392 -263 0
390 392 -267 -263 0
-390 392 -267 263 0
-393 267 0
-393 263 0
-393 -390 0
393 390 -267 -263 0
394 -267 390 0
-394 267 390 0
-395 390 0
394 -395 -267 0
-394 -395 267 0
394 395 267 -390 0
-394 395 -267 -390 0
-396 390 0
394 -396 267 0
-394 -396 -267 0
394 396 -267 -390 0
-394 396 267 -390 0
-397 394 0
-397 390 0
-397 -267 0
397 -394 267 -390 0
398 394 -390 0
-398 394 390 0
-399 394 0
398 -399 -390 0
-398 -399 390 0
398 399 -394 390 0
-398 399 -394 -390 0
-400 394 0
398 -400 390 0
-398 -400 -390 0
398 400 -394 -390 0
-398 400 -394 390 0
-401 394 0
-401 390 0
-401 -398 0
401 398 -394 -390 0
402 -394 398 0
-402 394 398 0
-403 398 0
402 -403 -394 0
-402 -403 394 0
402 403 394 -398 0
-402 403 -394 -398 0
-404 398 0
402 -404 394 0
-402 -404 -394 0
402 404 -394 -398 0
-402 404 394 -398 0
-405 402 0
-405 398 0
-405 -394 0
405 -402 394 -398 0
406 402 -398 0
-406 402 398 0
-407 402 0
406 -407 -398 0
-406 -407 398 0
406 407 -402 398 0
-406 407 -402 -398 0
-408 402 0
406 -408 398 0
-406 -408 -398 0
406 408 -402 -398 0
-406 408 -402 398 0
-409 402 0
-409 398 0
-409 -406 0
409 406 -402 -398 0
-373 0
-368 0
-379 0
-356 0
-382 0
-342 0
-386 0
-402 0
-406 0
